11,4	0,0	14,4	15,8	0,0	0,0	0,0	0,0	0,0	15,9
12,3	13,7	0,0	16,5	13,0	0,0	0,0	18,9	0,0	0,0
0,0	0,0	6,5	0,0	5,4	7,8	0,0	0,0	20,0	0,0
19,9	0,0	8,3	0,0	0,0	0,0	20,0	0,0	0,0	0,0
0,0	5,4	0,0	10,6	9,0	0,0	0,0	17,1	0,0	0,0
0,0	10,5	12,6	0,0	7,9	14,6	0,0	0,0	11,3	0,0
0,0	19,1	0,0	12,2	0,0	0,0	12,9	0,0	0,0	8,7
17,5	0,0	16,5	0,0	0,0	0,0	0,0	0,0	0,0	17,3
0,0	12,1	0,0	18,5	12,6	0,0	0,0	8,9	0,0	0,0
0,0	0,0	9,1	0,0	0,0	8,6	16,0	0,0	0,0	8,1
0,0	8,0	0,0	0,0	18,6	0,0	7,5	0,0	17,0	9,0
7,5	0,0	14,6	0,0	9,0	0,0	15,7	11,7	20,0	0,0
0,0	16,0	0,0	0,0	0,0	14,5	0,0	18,8	9,6	15,5
5,6	9,0	5,1	0,0	0,0	11,8	0,0	11,9	17,3	0,0
17,2	0,0	10,1	0,0	8,1	7,2	12,5	8,4	0,0	0,0
0,0	10,9	0,0	10,2	0,0	15,4	0,0	13,7	0,0	0,0
20,0	0,0	12,6	10,5	16,8	0,0	0,0	19,3	0,0	0,0
0,0	0,0	13,9	0,0	0,0	18,9	11,1	0,0	6,7	19,5
18,2	0,0	0,0	18,4	13,0	15,6	18,4	5,7	0,0	19,4
0,0	10,0	0,0	13,5	0,0	0,0	6,2	0,0	8,1	16,8
									
4,3	3,0	2,8	4,7	4,9	3,2	4,0	4,9	3,7	3,5
